     Program PWSCF v.5.1rc2 starts on 26Oct2017 at 13:48:53

     Current dimensions of program PWSCF are:
     Max number of different atomic species (ntypx) = 10
     Max number of k-points (npk) =  40000
     Max angular momentum in pseudopotentials (lmaxx) =  3

     IMPORTANT: XC functional enforced from input :
     Exchange-correlation      = PBE ( 1  4  3  4 0)
     Any further DFT definition will be discarded
     Please, verify this is what you really want

               file Pd.UPF: wavefunction(s)  4S 5S 4D renormalized

     Subspace diagonalization in iterative solution of the eigenvalue problem:
     a serial algorithm will be used

     Found symmetry operation: I + (  0.3333  0.0000  0.0000)
     This is a supercell, fractional translations are disabled

     bravais-lattice index     =            0
     lattice parameter (alat)  =       1.8897  a.u.
     unit-cell volume          =    5489.0157 (a.u.)^3
     number of atoms/cell      =           18
     number of atomic types    =            1
     number of electrons       =       324.00
     number of Kohn-Sham states=          172
     kinetic-energy cutoff     =      44.0992  Ry
     charge density cutoff     =     330.7439  Ry
     convergence threshold     =      7.3E-08
     mixing beta               =       0.0500
     number of iterations used =            8  local-TF  mixing
     Exchange-correlation      = PBE ( 1  4  3  4 0)
     nstep                     =           50

     celldm(1)=   1.889726  celldm(2)=   0.000000  celldm(3)=   0.000000
     celldm(4)=   0.000000  celldm(5)=   0.000000  celldm(6)=   0.000000

     crystal axes: (cart. coord. in units of alat)
               a(1) = (   8.251936   0.000000   0.000000 )
               a(2) = (   0.000000   8.251936   0.000000 )
               a(3) = (   0.000000   0.000000  11.945000 )

     reciprocal axes: (cart. coord. in units 2 pi/alat)
               b(1) = (  0.121184  0.000000  0.000000 )
               b(2) = (  0.000000  0.121184  0.000000 )
               b(3) = (  0.000000  0.000000  0.083717 )

     PseudoPot. # 1 for Pd read from file:
     /gpfs/pace1/project/chbe-medford/medford-share/data/pseudos/SSSP_eff_PBE/Pd.UPF
     MD5 check sum: ea89d3e00be872097c4300495f51d8eb
     Pseudo is Projector augmented-wave + core cor, Zval = 18.0
     Generated using "atomic" code by A. Dal Corso  v.5.1
     Shape of augmentation charge: PSQ
     Using radial grid of 1235 points,  6 beta functions with:
                l(1) =   0
                l(2) =   0
                l(3) =   1
                l(4) =   1
                l(5) =   2
                l(6) =   2
     Q(r) pseudized with 0 coefficients

     atomic species   valence    mass     pseudopotential
        Pd1           18.00   106.42000     Pd( 1.00)

      8 Sym. Ops. (no inversion) found

   Cartesian axes

     site n.     atom                  positions (alat units)
         1           Pd1 tau(   1) = (   1.3753227   1.3753227   5.0000000  )
         2           Pd1 tau(   2) = (   4.1259681   1.3753227   5.0000000  )
         3           Pd1 tau(   3) = (   6.8766134   1.3753227   5.0000000  )
         4           Pd1 tau(   4) = (   1.3753227   4.1259681   5.0000000  )
         5           Pd1 tau(   5) = (   4.1259681   4.1259681   5.0000000  )
         6           Pd1 tau(   6) = (   6.8766134   4.1259681   5.0000000  )
         7           Pd1 tau(   7) = (   1.3753227   6.8766134   5.0000000  )
         8           Pd1 tau(   8) = (   4.1259681   6.8766134   5.0000000  )
         9           Pd1 tau(   9) = (   6.8766134   6.8766134   5.0000000  )
        10           Pd1 tau(  10) = (   0.0000000   0.0000000   6.9450000  )
        11           Pd1 tau(  11) = (   2.7506454   0.0000000   6.9450000  )
        12           Pd1 tau(  12) = (   5.5012908   0.0000000   6.9450000  )
        13           Pd1 tau(  13) = (   0.0000000   2.7506454   6.9450000  )
        14           Pd1 tau(  14) = (   2.7506454   2.7506454   6.9450000  )
        15           Pd1 tau(  15) = (   5.5012908   2.7506454   6.9450000  )
        16           Pd1 tau(  16) = (   0.0000000   5.5012908   6.9450000  )
        17           Pd1 tau(  17) = (   2.7506454   5.5012908   6.9450000  )
        18           Pd1 tau(  18) = (   5.5012908   5.5012908   6.9450000  )

     number of k points=    10  Fermi-Dirac smearing, width (Ry)=  0.0073
                       cart. coord. in units 2pi/alat
        k(    1) = (   0.0000000   0.0000000   0.0000000), wk =   0.0555556
        k(    2) = (   0.0000000   0.0201973   0.0000000), wk =   0.2222222
        k(    3) = (   0.0000000   0.0403946   0.0000000), wk =   0.2222222
        k(    4) = (   0.0000000  -0.0605918   0.0000000), wk =   0.1111111
        k(    5) = (   0.0201973   0.0201973   0.0000000), wk =   0.2222222
        k(    6) = (   0.0201973   0.0403946   0.0000000), wk =   0.4444444
        k(    7) = (   0.0201973  -0.0605918   0.0000000), wk =   0.2222222
        k(    8) = (   0.0403946   0.0403946   0.0000000), wk =   0.2222222
        k(    9) = (   0.0403946  -0.0605918   0.0000000), wk =   0.2222222
        k(   10) = (  -0.0605918  -0.0605918   0.0000000), wk =   0.0555556

     Largest allocated arrays     est. size (Mb)     dimensions
     Largest temporary arrays     est. size (Mb)     dimensions

     Check: negative/imaginary core charge=   -0.000002    0.000000

     Initial potential from superposition of free atoms
     Check: negative starting charge=   -0.005688

     starting charge  323.99311, renormalised to  324.00000

     negative rho (up, down):  5.688E-03 0.000E+00
     Starting wfc are  180 randomized atomic wfcs
     Checking if some PAW data can be deallocated...

     Self-consistent Calculation

     iteration #  1     ecut=    44.10 Ry     beta=0.05
     CG style diagonalization
     ethr =  1.00E-02,  avg # of iterations =  2.3

     negative rho (up, down):  3.460E-03 0.000E+00

     total energy              =   -9215.84646290 Ry
     Harris-Foulkes estimate   =   -9215.96374593 Ry
     estimated scf accuracy    <       4.58005784 Ry

[...]

     total energy              =   -9215.32163307 Ry
     Harris-Foulkes estimate   =   -9215.32163253 Ry
     estimated scf accuracy    <       0.00000012 Ry

     iteration # 50     ecut=    44.10 Ry     beta=0.05
     CG style diagonalization
     ethr =  3.64E-11,  avg # of iterations =  3.7

     negative rho (up, down):  9.139E-03 0.000E+00

     End of self-consistent calculation

          k = 0.0000 0.0000 0.0000 ( 27131 PWs)   bands (ev):

   -80.5976 -80.5745 -80.5745 -80.5745 -80.5745 -80.5609 -80.5562 -80.5562
   -80.5562 -80.5562 -80.5561 -80.5561 -80.5561 -80.5561 -80.5470 -80.5470
   -80.5470 -80.5470 -46.4285 -46.4285 -46.4285 -46.4285 -46.4255 -46.4255
   -46.4255 -46.4255 -46.4189 -46.4189 -46.4189 -46.4189 -46.3987 -46.3987
   -46.3987 -46.3987 -46.3525 -46.3525 -46.3525 -46.3525 -46.3186 -46.3186
   -46.3186 -46.3186 -46.2825 -46.2619 -46.2619 -46.2315 -46.2315 -46.2315
   -46.2315 -46.1945 -46.1945 -46.1945 -46.1945 -46.1911 -46.1911 -46.1885
   -46.1885 -46.1885 -46.1885 -46.1660 -46.1660 -46.1660 -46.1660 -46.1155
   -46.1155 -46.1155 -46.1155 -46.1035 -46.1035 -46.1035 -46.1035 -46.0836
    -2.1867  -1.2009  -1.1286  -0.9339  -0.9339  -0.9339  -0.9339  -0.8332
    -0.8332  -0.8332  -0.8332  -0.4880  -0.4880  -0.4880  -0.4880  -0.3498
    -0.3498  -0.3498  -0.3498  -0.2383  -0.2383  -0.2383  -0.2383  -0.1479
    -0.1479  -0.1479  -0.1479   0.0154   0.1885   0.1885   0.1885   0.1885
     0.8861   0.8861   0.8861   0.8861   1.2605   1.2605   1.2605   1.2605
     1.3868   1.3868   1.3868   1.3868   1.4412   1.4412   1.5299   1.5299
     1.5299   1.5299   1.6331   1.6508   1.6508   1.6508   1.6508   1.8516
     1.8516   1.8516   1.8516   1.8864   1.8864   1.8864   1.8864   1.9637
     1.9637   1.9637   1.9637   2.1777   2.1777   2.1777   2.1777   2.4392
     2.4392   2.4392   2.4392   2.5473   2.6180   2.6180   2.6180   2.6180
     2.6615   2.6615   2.6615   2.6615   2.7913   2.9443   2.9443   2.9443
     2.9443   3.0283   3.0283   3.0869   3.0869   3.0869   3.0869   3.1376
     4.5832   4.5832   4.5832   4.5832

[...]

          k = 0.0404-0.0606 0.0000 ( 27116 PWs)   bands (ev):

[...]

          k =-0.0606-0.0606 0.0000 ( 27192 PWs)   bands (ev):

   -80.5837 -80.5837 -80.5837 -80.5837 -80.5563 -80.5563 -80.5563 -80.5563
   -80.5561 -80.5561 -80.5561 -80.5561 -80.5561 -80.5561 -80.5561 -80.5561
   -80.5423 -80.5423 -46.4798 -46.4798 -46.4568 -46.4568 -46.4568 -46.4568
   -46.4568 -46.4568 -46.4568 -46.4568 -46.3628 -46.3628 -46.3216 -46.3216
   -46.3216 -46.3216 -46.3079 -46.3079 -46.3079 -46.3079 -46.3055 -46.3055
   -46.3055 -46.3055 -46.2595 -46.2595 -46.2595 -46.2595 -46.2595 -46.2595
   -46.2595 -46.2595 -46.2349 -46.2349 -46.2349 -46.2348 -46.2041 -46.2041
   -46.2041 -46.2041 -46.1446 -46.1446 -46.1394 -46.1394 -46.1394 -46.1394
   -46.1394 -46.1394 -46.1394 -46.1394 -46.0888 -46.0888 -46.0888 -46.0888
    -1.0642  -1.0642  -1.0642  -1.0642  -1.0327  -1.0327  -0.5619  -0.5619
    -0.5390  -0.5390  -0.5390  -0.5390  -0.5390  -0.5390  -0.5390  -0.5390
    -0.5044  -0.5044  -0.5044  -0.5044  -0.3560  -0.3560  -0.3560  -0.3560
     0.3327   0.3327   0.3327   0.3327   0.3327   0.3327   0.3327   0.3327
     0.6181   0.6181   0.6181   0.6181   0.9478   0.9478   0.9478   0.9478
     0.9478   0.9478   0.9478   0.9478   1.0593   1.0593   1.0593   1.0593
     1.0674   1.0674   1.0674   1.0674   1.3567   1.3567   1.3567   1.3567
     1.6855   1.6855   1.6855   1.6855   2.0906   2.0906   2.3028   2.3028
     2.3028   2.3028   2.3028   2.3028   2.3028   2.3028   2.4319   2.4319
     2.4319   2.4319   2.6225   2.6225   2.6225   2.6225   2.6225   2.6225
     2.6225   2.6225   2.6327   2.6327   2.6327   2.6327   2.6580   2.6580
     2.9025   2.9025   2.9025   2.9025   3.7452   3.7452   4.3607   4.3607
     4.3607   4.3607   6.3789   6.3789

     the Fermi energy is     3.0714 ev

!    total energy              =   -9215.32163855 Ry
     Harris-Foulkes estimate   =   -9215.32163309 Ry
     estimated scf accuracy    <       0.00000003 Ry

     total all-electron energy =   -181655.801884 Ry

     The total energy is the sum of the following terms:

     one-electron contribution =  -11446.97645749 Ry
     hartree contribution      =    5771.02032458 Ry
     xc contribution           =    -553.92661466 Ry
     ewald contribution        =    1608.67211953 Ry
     one-center paw contrib.   =   -4594.02534432 Ry
     smearing contrib. (-TS)   =      -0.08566619 Ry

     convergence has been achieved in  50 iterations

     Forces acting on atoms (Ry/au):

     negative rho (up, down):  9.139E-03 0.000E+00
     atom    1 type  1   force =    -0.00000576   -0.00000576   -0.00136628
     atom    2 type  1   force =     0.00000000   -0.00000351   -0.00134934
     atom    3 type  1   force =     0.00000576   -0.00000576   -0.00136628
     atom    4 type  1   force =    -0.00000351    0.00000000   -0.00134934
     atom    5 type  1   force =     0.00000000    0.00000000   -0.00135029
     atom    6 type  1   force =     0.00000351    0.00000000   -0.00134934
     atom    7 type  1   force =    -0.00000576    0.00000576   -0.00136628
     atom    8 type  1   force =     0.00000000    0.00000351   -0.00134934
     atom    9 type  1   force =     0.00000576    0.00000576   -0.00136628
     atom   10 type  1   force =     0.00000000    0.00000000    0.00136610
     atom   11 type  1   force =    -0.00000779    0.00000000    0.00135504
     atom   12 type  1   force =     0.00000779   -0.00000000    0.00135504
     atom   13 type  1   force =     0.00000000   -0.00000779    0.00135504
     atom   14 type  1   force =    -0.00000528   -0.00000528    0.00135663
     atom   15 type  1   force =     0.00000528   -0.00000528    0.00135663
     atom   16 type  1   force =     0.00000000    0.00000779    0.00135504
     atom   17 type  1   force =    -0.00000528    0.00000528    0.00135663
     atom   18 type  1   force =     0.00000528    0.00000528    0.00135663

     Total force =     0.005757     Total SCF correction =     0.001412
     SCF correction compared to forces is large: reduce conv_thr to get better values
 !ASE

     Writing output data file calc.save

     General routines

     Parallel routines

     PAW routines

   This run was terminated on:  14: 7:19  26Oct2017

   JOB DONE.